(set-info :source |
 Generated by Alive 0.1
 More info in N. P. Lopes, D. Menendez, S. Nagarakatte, J. Regehr.
 Provably Correct Peephole Optimizations with Alive. In PLDI'15.
|)

(set-info :status unknown)
(declare-fun %B () (_ BitVec 11))
(declare-fun %A () (_ BitVec 11))
(assert
 (let ((?x34213 (bvand %A %B)))
 (let ((?x86713 (bvxor ?x34213 (_ bv2047 11))))
 (and (distinct (bvor (bvxor %A (_ bv2047 11)) (bvxor %B (_ bv2047 11))) ?x86713) true))))
(check-sat)
